Version identifier: 22.1.0.0 | 2022-03-09 | 1a383f8ce
CPXPARAM_Read_DataCheck                          1
CPXPARAM_TimeLimit                               10
Found incumbent of value 1547.000000 after 0.00 sec. (0.00 ticks)
Tried aggregator 1 time.
MIP Presolve added 3 rows and 3 columns.
Reduced MIP has 6 rows, 29 columns, and 74 nonzeros.
Reduced MIP has 20 binaries, 9 generals, 0 SOSs, and 0 indicators.
Presolve time = 0.00 sec. (0.04 ticks)
Probing time = 0.00 sec. (0.00 ticks)
Tried aggregator 1 time.
Detecting symmetries...
MIP Presolve eliminated 3 rows and 3 columns.
MIP Presolve added 3 rows and 3 columns.
Reduced MIP has 6 rows, 29 columns, and 74 nonzeros.
Reduced MIP has 20 binaries, 9 generals, 0 SOSs, and 0 indicators.
Presolve time = 0.00 sec. (0.05 ticks)
Probing time = 0.00 sec. (0.00 ticks)
MIP emphasis: balance optimality and feasibility.
MIP search method: dynamic search.
Parallel mode: deterministic, using up to 24 threads.
Root relaxation solution time = 0.00 sec. (0.03 ticks)

        Nodes                                         Cuts/
   Node  Left     Objective  IInf  Best Integer    Best Bound    ItCnt     Gap

*     0+    0                         1547.0000        0.0000           100.00%
      0     0        0.0000     3     1547.0000        0.0000        6  100.00%
*     0+    0                          114.0000        0.0000           100.00%
      0     0        0.0000     5      114.0000       Cuts: 8       10  100.00%
*     0+    0                          103.0000        0.0000           100.00%
      0     0        0.0000     5      103.0000       Cuts: 9       17  100.00%
*     0+    0                           90.0000        0.0000           100.00%
*     0+    0                           28.0000        0.0000           100.00%
*     0+    0                           17.0000        0.0000           100.00%
Detecting symmetries...
      0     2        0.0000     5       17.0000        0.0000       17  100.00%
Elapsed time = 0.11 sec. (0.75 ticks, tree = 0.02 MB, solutions = 6)
*    42+   16                           16.0000        0.0000           100.00%
*    92    35      integral     0       14.0000        0.0000       77  100.00%
*   141    35      integral     0        7.0000        0.0000       81  100.00%
*   454+   56                            5.0000        0.0000           100.00%
*  2733   147      integral     0        2.0000        0.0000     1085  100.00%

Mixed integer rounding cuts applied:  2

Root node processing (before b&c):
  Real time             =    0.11 sec. (0.75 ticks)
Parallel b&c, 24 threads:
  Real time             =    0.45 sec. (4.42 ticks)
  Sync time (average)   =    0.40 sec.
  Wait time (average)   =    0.00 sec.
                          ------------
Total (root+branch&cut) =    0.56 sec. (5.17 ticks)
